import Controller.dzn;
import LEDControl.dzn;
import KineticEnergyCheck.dzn;
import RotationalEnergyCheck.dzn;
import ArmPositionCheck.dzn;
import ArmForceCheck.dzn;
import BaseCaseCheck.dzn;
import Sensors.dzn;

component System {
	provides IController iController;
	requires ILEDControl iLEDControl;
	requires IAccelerationSensor iAccelerationSensor;
	requires IAngularVelocitySensor iAngularVelocitySensor;
	requires IArmPositionSensor iArmPositionSensor;
	requires IArmForceSensor iArmForceSensor;
	
	system {
		/*** Components ***/
		Controller controller;
		KineticEnergyCheck kineticEnergyCheck;
		RotationalEnergyCheck rotationalEnergyCheck;
		ArmPositionCheck armPositionCheck;
		ArmForceCheck armForceCheck;
		BaseCaseCheck baseCaseCheck;

		iController <=> controller.iController;
		iLEDControl <=> controller.iLEDControl;

		/*** Bind sensors ***/
		iAccelerationSensor <=> kineticEnergyCheck.iAccelerationSensor;
		iAngularVelocitySensor <=> rotationalEnergyCheck.iAngularVelocitySensor;
		iArmForceSensor <=> armForceCheck.iArmForceSensor;
		iArmPositionSensor <=> armPositionCheck.iArmPositionSensor;

 		/*** Check all four ***/
		controller.iNext <=> kineticEnergyCheck.iKineticEnergyCheck;
        kineticEnergyCheck.iNext <=> rotationalEnergyCheck.iRotationalEnergyCheck;
		rotationalEnergyCheck.iNext <=> armPositionCheck.iArmPositionCheck;
		armPositionCheck.iNext <=> armForceCheck.iArmForceCheck;
		armForceCheck.iNext <=> baseCaseCheck.iRoot;


		/*** Acceleration check only ***/
//		controller.iNext <=> kineticEnergyCheck.iKineticEnergy;
//		kineticEnergyCheck.iNext <=> baseCaseCheck.iRoot;

		/*** Angular velocity check only ***/
//		controller.iNext <=> rotationalEnergyCheck.iRotationalEnergyCheck;
//		rotationalEnergyCheck.iNext <=> baseCaseCheck.iRoot;

		/*** Acceleration and angular velocity checks only ***/
//		controller.iNext <=> kineticEnergyCheck.iKineticEnergyCheck;
//		kineticEnergyCheck.iNext <=> rotationalEnergyCheck.iRotationalEnergyCheck;
//		rotationalEnergyCheck.iNext <=> baseCaseCheck.iRoot;

		/*** arm Force and arm checks only ***/
//		controller.iNext <=> armForceCheck.iArmForceCheck;
//		armForceCheck.iNext <=> armPositionCheck.iArmPositionCheck;
//		armPositionCheck.iNext <=> baseCaseCheck.iRoot;
	}
}
